
(set-logic HORN)
(declare-datatypes ((Bool_224 0)) (((false_224) (true_224))))
(declare-fun diseqBool_101 (Bool_224 Bool_224) Bool)
(declare-fun isfalse_101 (Bool_224) Bool)
(declare-fun istrue_101 (Bool_224) Bool)
(assert (isfalse_101 false_224))
(assert (istrue_101 true_224))
(assert (diseqBool_101 false_224 true_224))
(assert (diseqBool_101 true_224 false_224))
(declare-fun and_224 (Bool_224 Bool_224 Bool_224) Bool)
(declare-fun or_228 (Bool_224 Bool_224 Bool_224) Bool)
(declare-fun hence_224 (Bool_224 Bool_224 Bool_224) Bool)
(declare-fun not_227 (Bool_224 Bool_224) Bool)
(assert (and_224 false_224 false_224 false_224))
(assert (and_224 false_224 true_224 false_224))
(assert (and_224 false_224 false_224 true_224))
(assert (and_224 true_224 true_224 true_224))
(assert (or_228 false_224 false_224 false_224))
(assert (or_228 true_224 true_224 false_224))
(assert (or_228 true_224 false_224 true_224))
(assert (or_228 true_224 true_224 true_224))
(assert (hence_224 true_224 false_224 false_224))
(assert (hence_224 false_224 true_224 false_224))
(assert (hence_224 true_224 false_224 true_224))
(assert (hence_224 true_224 true_224 true_224))
(assert (not_227 true_224 false_224))
(assert (not_227 false_224 true_224))
(declare-datatypes ((A_38 0)) (((X_35297) (Y_1436))))
(declare-fun diseqA_9 (A_38 A_38) Bool)
(declare-fun isX_12 (A_38) Bool)
(declare-fun isY_9 (A_38) Bool)
(assert (isX_12 X_35297))
(assert (isY_9 Y_1436))
(assert (diseqA_9 X_35297 Y_1436))
(assert (diseqA_9 Y_1436 X_35297))
(declare-datatypes ((R_271 0)) (((Nil_172) (Eps_18) (Atom_9 (projAtom_18 A_38)) (Plus_83 (projPlus_36 R_271) (projPlus_37 R_271)) (Seq_18 (projSeq_36 R_271) (projSeq_37 R_271)) (Star_9 (projStar_18 R_271)))))
(declare-fun diseqR_9 (R_271 R_271) Bool)
(declare-fun projAtom_19 (A_38 R_271) Bool)
(declare-fun projPlus_38 (R_271 R_271) Bool)
(declare-fun projPlus_39 (R_271 R_271) Bool)
(declare-fun projSeq_38 (R_271 R_271) Bool)
(declare-fun projSeq_39 (R_271 R_271) Bool)
(declare-fun projStar_19 (R_271 R_271) Bool)
(declare-fun isNil_172 (R_271) Bool)
(declare-fun isEps_9 (R_271) Bool)
(declare-fun isAtom_9 (R_271) Bool)
(declare-fun isPlus_9 (R_271) Bool)
(declare-fun isSeq_9 (R_271) Bool)
(declare-fun isStar_9 (R_271) Bool)
(assert (forall ((x_37396 A_38))
	(projAtom_19 x_37396 (Atom_9 x_37396))))
(assert (forall ((x_37398 R_271) (x_37399 R_271))
	(projPlus_38 x_37398 (Plus_83 x_37398 x_37399))))
(assert (forall ((x_37398 R_271) (x_37399 R_271))
	(projPlus_39 x_37399 (Plus_83 x_37398 x_37399))))
(assert (forall ((x_37401 R_271) (x_37402 R_271))
	(projSeq_38 x_37401 (Seq_18 x_37401 x_37402))))
(assert (forall ((x_37401 R_271) (x_37402 R_271))
	(projSeq_39 x_37402 (Seq_18 x_37401 x_37402))))
(assert (forall ((x_37404 R_271))
	(projStar_19 x_37404 (Star_9 x_37404))))
(assert (isNil_172 Nil_172))
(assert (isEps_9 Eps_18))
(assert (forall ((x_37406 A_38))
	(isAtom_9 (Atom_9 x_37406))))
(assert (forall ((x_37407 R_271) (x_37408 R_271))
	(isPlus_9 (Plus_83 x_37407 x_37408))))
(assert (forall ((x_37409 R_271) (x_37410 R_271))
	(isSeq_9 (Seq_18 x_37409 x_37410))))
(assert (forall ((x_37411 R_271))
	(isStar_9 (Star_9 x_37411))))
(assert (diseqR_9 Nil_172 Eps_18))
(assert (forall ((x_37412 A_38))
	(diseqR_9 Nil_172 (Atom_9 x_37412))))
(assert (forall ((x_37413 R_271) (x_37414 R_271))
	(diseqR_9 Nil_172 (Plus_83 x_37413 x_37414))))
(assert (forall ((x_37415 R_271) (x_37416 R_271))
	(diseqR_9 Nil_172 (Seq_18 x_37415 x_37416))))
(assert (forall ((x_37417 R_271))
	(diseqR_9 Nil_172 (Star_9 x_37417))))
(assert (diseqR_9 Eps_18 Nil_172))
(assert (forall ((x_37418 A_38))
	(diseqR_9 (Atom_9 x_37418) Nil_172)))
(assert (forall ((x_37419 R_271) (x_37420 R_271))
	(diseqR_9 (Plus_83 x_37419 x_37420) Nil_172)))
(assert (forall ((x_37421 R_271) (x_37422 R_271))
	(diseqR_9 (Seq_18 x_37421 x_37422) Nil_172)))
(assert (forall ((x_37423 R_271))
	(diseqR_9 (Star_9 x_37423) Nil_172)))
(assert (forall ((x_37424 A_38))
	(diseqR_9 Eps_18 (Atom_9 x_37424))))
(assert (forall ((x_37425 R_271) (x_37426 R_271))
	(diseqR_9 Eps_18 (Plus_83 x_37425 x_37426))))
(assert (forall ((x_37427 R_271) (x_37428 R_271))
	(diseqR_9 Eps_18 (Seq_18 x_37427 x_37428))))
(assert (forall ((x_37429 R_271))
	(diseqR_9 Eps_18 (Star_9 x_37429))))
(assert (forall ((x_37430 A_38))
	(diseqR_9 (Atom_9 x_37430) Eps_18)))
(assert (forall ((x_37431 R_271) (x_37432 R_271))
	(diseqR_9 (Plus_83 x_37431 x_37432) Eps_18)))
(assert (forall ((x_37433 R_271) (x_37434 R_271))
	(diseqR_9 (Seq_18 x_37433 x_37434) Eps_18)))
(assert (forall ((x_37435 R_271))
	(diseqR_9 (Star_9 x_37435) Eps_18)))
(assert (forall ((x_37436 A_38) (x_37437 R_271) (x_37438 R_271))
	(diseqR_9 (Atom_9 x_37436) (Plus_83 x_37437 x_37438))))
(assert (forall ((x_37439 A_38) (x_37440 R_271) (x_37441 R_271))
	(diseqR_9 (Atom_9 x_37439) (Seq_18 x_37440 x_37441))))
(assert (forall ((x_37442 A_38) (x_37443 R_271))
	(diseqR_9 (Atom_9 x_37442) (Star_9 x_37443))))
(assert (forall ((x_37444 R_271) (x_37445 R_271) (x_37446 A_38))
	(diseqR_9 (Plus_83 x_37444 x_37445) (Atom_9 x_37446))))
(assert (forall ((x_37447 R_271) (x_37448 R_271) (x_37449 A_38))
	(diseqR_9 (Seq_18 x_37447 x_37448) (Atom_9 x_37449))))
(assert (forall ((x_37450 R_271) (x_37451 A_38))
	(diseqR_9 (Star_9 x_37450) (Atom_9 x_37451))))
(assert (forall ((x_37452 R_271) (x_37453 R_271) (x_37454 R_271) (x_37455 R_271))
	(diseqR_9 (Plus_83 x_37452 x_37453) (Seq_18 x_37454 x_37455))))
(assert (forall ((x_37456 R_271) (x_37457 R_271) (x_37458 R_271))
	(diseqR_9 (Plus_83 x_37456 x_37457) (Star_9 x_37458))))
(assert (forall ((x_37459 R_271) (x_37460 R_271) (x_37461 R_271) (x_37462 R_271))
	(diseqR_9 (Seq_18 x_37459 x_37460) (Plus_83 x_37461 x_37462))))
(assert (forall ((x_37463 R_271) (x_37464 R_271) (x_37465 R_271))
	(diseqR_9 (Star_9 x_37463) (Plus_83 x_37464 x_37465))))
(assert (forall ((x_37466 R_271) (x_37467 R_271) (x_37468 R_271))
	(diseqR_9 (Seq_18 x_37466 x_37467) (Star_9 x_37468))))
(assert (forall ((x_37469 R_271) (x_37470 R_271) (x_37471 R_271))
	(diseqR_9 (Star_9 x_37469) (Seq_18 x_37470 x_37471))))
(assert (forall ((x_37472 A_38) (x_37473 A_38))
	(=> (diseqA_9 x_37472 x_37473) (diseqR_9 (Atom_9 x_37472) (Atom_9 x_37473)))))
(assert (forall ((x_37474 R_271) (x_37475 R_271) (x_37476 R_271) (x_37477 R_271))
	(=> (diseqR_9 x_37474 x_37476) (diseqR_9 (Plus_83 x_37474 x_37475) (Plus_83 x_37476 x_37477)))))
(assert (forall ((x_37474 R_271) (x_37475 R_271) (x_37476 R_271) (x_37477 R_271))
	(=> (diseqR_9 x_37475 x_37477) (diseqR_9 (Plus_83 x_37474 x_37475) (Plus_83 x_37476 x_37477)))))
(assert (forall ((x_37478 R_271) (x_37479 R_271) (x_37480 R_271) (x_37481 R_271))
	(=> (diseqR_9 x_37478 x_37480) (diseqR_9 (Seq_18 x_37478 x_37479) (Seq_18 x_37480 x_37481)))))
(assert (forall ((x_37478 R_271) (x_37479 R_271) (x_37480 R_271) (x_37481 R_271))
	(=> (diseqR_9 x_37479 x_37481) (diseqR_9 (Seq_18 x_37478 x_37479) (Seq_18 x_37480 x_37481)))))
(assert (forall ((x_37482 R_271) (x_37483 R_271))
	(=> (diseqR_9 x_37482 x_37483) (diseqR_9 (Star_9 x_37482) (Star_9 x_37483)))))
(declare-datatypes ((list_153 0)) (((nil_173) (cons_153 (head_306 A_38) (tail_306 list_153)))))
(declare-fun diseqlist_153 (list_153 list_153) Bool)
(declare-fun head_307 (A_38 list_153) Bool)
(declare-fun tail_307 (list_153 list_153) Bool)
(declare-fun isnil_173 (list_153) Bool)
(declare-fun iscons_153 (list_153) Bool)
(assert (forall ((x_37485 A_38) (x_37486 list_153))
	(head_307 x_37485 (cons_153 x_37485 x_37486))))
(assert (forall ((x_37485 A_38) (x_37486 list_153))
	(tail_307 x_37486 (cons_153 x_37485 x_37486))))
(assert (isnil_173 nil_173))
(assert (forall ((x_37488 A_38) (x_37489 list_153))
	(iscons_153 (cons_153 x_37488 x_37489))))
(assert (forall ((x_37490 A_38) (x_37491 list_153))
	(diseqlist_153 nil_173 (cons_153 x_37490 x_37491))))
(assert (forall ((x_37492 A_38) (x_37493 list_153))
	(diseqlist_153 (cons_153 x_37492 x_37493) nil_173)))
(assert (forall ((x_37494 A_38) (x_37495 list_153) (x_37496 A_38) (x_37497 list_153))
	(=> (diseqA_9 x_37494 x_37496) (diseqlist_153 (cons_153 x_37494 x_37495) (cons_153 x_37496 x_37497)))))
(assert (forall ((x_37494 A_38) (x_37495 list_153) (x_37496 A_38) (x_37497 list_153))
	(=> (diseqlist_153 x_37495 x_37497) (diseqlist_153 (cons_153 x_37494 x_37495) (cons_153 x_37496 x_37497)))))
(declare-fun seq_19 (R_271 R_271 R_271) Bool)
(assert (forall ((y_1437 R_271))
	(seq_19 Nil_172 Nil_172 y_1437)))
(assert (forall ((x_35299 R_271) (x_35544 A_38))
	(seq_19 Nil_172 (Atom_9 x_35544) Nil_172)))
(assert (forall ((x_35299 R_271))
	(seq_19 Nil_172 Eps_18 Nil_172)))
(assert (forall ((x_35299 R_271) (x_35545 R_271) (x_35546 R_271))
	(seq_19 Nil_172 (Plus_83 x_35545 x_35546) Nil_172)))
(assert (forall ((x_35299 R_271) (x_35547 R_271) (x_35548 R_271))
	(seq_19 Nil_172 (Seq_18 x_35547 x_35548) Nil_172)))
(assert (forall ((x_35299 R_271) (x_35549 R_271))
	(seq_19 Nil_172 (Star_9 x_35549) Nil_172)))
(assert (forall ((x_35300 R_271) (x_35358 A_38) (x_35299 R_271))
	(seq_19 (Atom_9 x_35358) Eps_18 (Atom_9 x_35358))))
(assert (forall ((x_35300 R_271) (x_35299 R_271))
	(seq_19 Eps_18 Eps_18 Eps_18)))
(assert (forall ((x_35300 R_271) (x_35359 R_271) (x_35360 R_271) (x_35299 R_271))
	(seq_19 (Plus_83 x_35359 x_35360) Eps_18 (Plus_83 x_35359 x_35360))))
(assert (forall ((x_35300 R_271) (x_35361 R_271) (x_35362 R_271) (x_35299 R_271))
	(seq_19 (Seq_18 x_35361 x_35362) Eps_18 (Seq_18 x_35361 x_35362))))
(assert (forall ((x_35300 R_271) (x_35363 R_271) (x_35299 R_271))
	(seq_19 (Star_9 x_35363) Eps_18 (Star_9 x_35363))))
(assert (forall ((x_35301 R_271) (x_35322 A_38) (x_35300 R_271) (x_35299 R_271))
	(seq_19 (Atom_9 x_35322) (Atom_9 x_35322) Eps_18)))
(assert (forall ((x_35301 R_271) (x_35323 R_271) (x_35324 R_271) (x_35300 R_271) (x_35299 R_271))
	(seq_19 (Plus_83 x_35323 x_35324) (Plus_83 x_35323 x_35324) Eps_18)))
(assert (forall ((x_35301 R_271) (x_35325 R_271) (x_35326 R_271) (x_35300 R_271) (x_35299 R_271))
	(seq_19 (Seq_18 x_35325 x_35326) (Seq_18 x_35325 x_35326) Eps_18)))
(assert (forall ((x_35301 R_271) (x_35327 R_271) (x_35300 R_271) (x_35299 R_271))
	(seq_19 (Star_9 x_35327) (Star_9 x_35327) Eps_18)))
(assert (forall ((x_35302 R_271) (x_35316 A_38) (x_35301 R_271) (x_35328 A_38) (x_35300 R_271) (x_35299 R_271))
	(seq_19 (Seq_18 (Atom_9 x_35328) (Atom_9 x_35316)) (Atom_9 x_35328) (Atom_9 x_35316))))
(assert (forall ((x_35302 R_271) (x_35316 A_38) (x_35301 R_271) (x_35329 R_271) (x_35330 R_271) (x_35300 R_271) (x_35299 R_271))
	(seq_19 (Seq_18 (Plus_83 x_35329 x_35330) (Atom_9 x_35316)) (Plus_83 x_35329 x_35330) (Atom_9 x_35316))))
(assert (forall ((x_35302 R_271) (x_35316 A_38) (x_35301 R_271) (x_35331 R_271) (x_35332 R_271) (x_35300 R_271) (x_35299 R_271))
	(seq_19 (Seq_18 (Seq_18 x_35331 x_35332) (Atom_9 x_35316)) (Seq_18 x_35331 x_35332) (Atom_9 x_35316))))
(assert (forall ((x_35302 R_271) (x_35316 A_38) (x_35301 R_271) (x_35333 R_271) (x_35300 R_271) (x_35299 R_271))
	(seq_19 (Seq_18 (Star_9 x_35333) (Atom_9 x_35316)) (Star_9 x_35333) (Atom_9 x_35316))))
(assert (forall ((x_35302 R_271) (x_35317 R_271) (x_35318 R_271) (x_35301 R_271) (x_35340 A_38) (x_35300 R_271) (x_35299 R_271))
	(seq_19 (Seq_18 (Atom_9 x_35340) (Plus_83 x_35317 x_35318)) (Atom_9 x_35340) (Plus_83 x_35317 x_35318))))
(assert (forall ((x_35302 R_271) (x_35317 R_271) (x_35318 R_271) (x_35301 R_271) (x_35341 R_271) (x_35342 R_271) (x_35300 R_271) (x_35299 R_271))
	(seq_19 (Seq_18 (Plus_83 x_35341 x_35342) (Plus_83 x_35317 x_35318)) (Plus_83 x_35341 x_35342) (Plus_83 x_35317 x_35318))))
(assert (forall ((x_35302 R_271) (x_35317 R_271) (x_35318 R_271) (x_35301 R_271) (x_35343 R_271) (x_35344 R_271) (x_35300 R_271) (x_35299 R_271))
	(seq_19 (Seq_18 (Seq_18 x_35343 x_35344) (Plus_83 x_35317 x_35318)) (Seq_18 x_35343 x_35344) (Plus_83 x_35317 x_35318))))
(assert (forall ((x_35302 R_271) (x_35317 R_271) (x_35318 R_271) (x_35301 R_271) (x_35345 R_271) (x_35300 R_271) (x_35299 R_271))
	(seq_19 (Seq_18 (Star_9 x_35345) (Plus_83 x_35317 x_35318)) (Star_9 x_35345) (Plus_83 x_35317 x_35318))))
(assert (forall ((x_35302 R_271) (x_35319 R_271) (x_35320 R_271) (x_35301 R_271) (x_35346 A_38) (x_35300 R_271) (x_35299 R_271))
	(seq_19 (Seq_18 (Atom_9 x_35346) (Seq_18 x_35319 x_35320)) (Atom_9 x_35346) (Seq_18 x_35319 x_35320))))
(assert (forall ((x_35302 R_271) (x_35319 R_271) (x_35320 R_271) (x_35301 R_271) (x_35347 R_271) (x_35348 R_271) (x_35300 R_271) (x_35299 R_271))
	(seq_19 (Seq_18 (Plus_83 x_35347 x_35348) (Seq_18 x_35319 x_35320)) (Plus_83 x_35347 x_35348) (Seq_18 x_35319 x_35320))))
(assert (forall ((x_35302 R_271) (x_35319 R_271) (x_35320 R_271) (x_35301 R_271) (x_35349 R_271) (x_35350 R_271) (x_35300 R_271) (x_35299 R_271))
	(seq_19 (Seq_18 (Seq_18 x_35349 x_35350) (Seq_18 x_35319 x_35320)) (Seq_18 x_35349 x_35350) (Seq_18 x_35319 x_35320))))
(assert (forall ((x_35302 R_271) (x_35319 R_271) (x_35320 R_271) (x_35301 R_271) (x_35351 R_271) (x_35300 R_271) (x_35299 R_271))
	(seq_19 (Seq_18 (Star_9 x_35351) (Seq_18 x_35319 x_35320)) (Star_9 x_35351) (Seq_18 x_35319 x_35320))))
(assert (forall ((x_35302 R_271) (x_35321 R_271) (x_35301 R_271) (x_35352 A_38) (x_35300 R_271) (x_35299 R_271))
	(seq_19 (Seq_18 (Atom_9 x_35352) (Star_9 x_35321)) (Atom_9 x_35352) (Star_9 x_35321))))
(assert (forall ((x_35302 R_271) (x_35321 R_271) (x_35301 R_271) (x_35353 R_271) (x_35354 R_271) (x_35300 R_271) (x_35299 R_271))
	(seq_19 (Seq_18 (Plus_83 x_35353 x_35354) (Star_9 x_35321)) (Plus_83 x_35353 x_35354) (Star_9 x_35321))))
(assert (forall ((x_35302 R_271) (x_35321 R_271) (x_35301 R_271) (x_35355 R_271) (x_35356 R_271) (x_35300 R_271) (x_35299 R_271))
	(seq_19 (Seq_18 (Seq_18 x_35355 x_35356) (Star_9 x_35321)) (Seq_18 x_35355 x_35356) (Star_9 x_35321))))
(assert (forall ((x_35302 R_271) (x_35321 R_271) (x_35301 R_271) (x_35357 R_271) (x_35300 R_271) (x_35299 R_271))
	(seq_19 (Seq_18 (Star_9 x_35357) (Star_9 x_35321)) (Star_9 x_35357) (Star_9 x_35321))))
(declare-fun plus_84 (R_271 R_271 R_271) Bool)
(assert (forall ((x_37304 R_271))
	(plus_84 x_37304 Nil_172 x_37304)))
(assert (forall ((x_35304 R_271) (x_36486 A_38))
	(plus_84 (Atom_9 x_36486) (Atom_9 x_36486) Nil_172)))
(assert (forall ((x_35304 R_271))
	(plus_84 Eps_18 Eps_18 Nil_172)))
(assert (forall ((x_35304 R_271) (x_36487 R_271) (x_36488 R_271))
	(plus_84 (Plus_83 x_36487 x_36488) (Plus_83 x_36487 x_36488) Nil_172)))
(assert (forall ((x_35304 R_271) (x_36489 R_271) (x_36490 R_271))
	(plus_84 (Seq_18 x_36489 x_36490) (Seq_18 x_36489 x_36490) Nil_172)))
(assert (forall ((x_35304 R_271) (x_36491 R_271))
	(plus_84 (Star_9 x_36491) (Star_9 x_36491) Nil_172)))
(assert (forall ((x_35305 R_271) (x_36480 A_38) (x_35304 R_271) (x_36492 A_38))
	(plus_84 (Plus_83 (Atom_9 x_36492) (Atom_9 x_36480)) (Atom_9 x_36492) (Atom_9 x_36480))))
(assert (forall ((x_35305 R_271) (x_36480 A_38) (x_35304 R_271))
	(plus_84 (Plus_83 Eps_18 (Atom_9 x_36480)) Eps_18 (Atom_9 x_36480))))
(assert (forall ((x_35305 R_271) (x_36480 A_38) (x_35304 R_271) (x_36493 R_271) (x_36494 R_271))
	(plus_84 (Plus_83 (Plus_83 x_36493 x_36494) (Atom_9 x_36480)) (Plus_83 x_36493 x_36494) (Atom_9 x_36480))))
(assert (forall ((x_35305 R_271) (x_36480 A_38) (x_35304 R_271) (x_36495 R_271) (x_36496 R_271))
	(plus_84 (Plus_83 (Seq_18 x_36495 x_36496) (Atom_9 x_36480)) (Seq_18 x_36495 x_36496) (Atom_9 x_36480))))
(assert (forall ((x_35305 R_271) (x_36480 A_38) (x_35304 R_271) (x_36497 R_271))
	(plus_84 (Plus_83 (Star_9 x_36497) (Atom_9 x_36480)) (Star_9 x_36497) (Atom_9 x_36480))))
(assert (forall ((x_35305 R_271) (x_35304 R_271) (x_36498 A_38))
	(plus_84 (Plus_83 (Atom_9 x_36498) Eps_18) (Atom_9 x_36498) Eps_18)))
(assert (forall ((x_35305 R_271) (x_35304 R_271))
	(plus_84 (Plus_83 Eps_18 Eps_18) Eps_18 Eps_18)))
(assert (forall ((x_35305 R_271) (x_35304 R_271) (x_36499 R_271) (x_36500 R_271))
	(plus_84 (Plus_83 (Plus_83 x_36499 x_36500) Eps_18) (Plus_83 x_36499 x_36500) Eps_18)))
(assert (forall ((x_35305 R_271) (x_35304 R_271) (x_36501 R_271) (x_36502 R_271))
	(plus_84 (Plus_83 (Seq_18 x_36501 x_36502) Eps_18) (Seq_18 x_36501 x_36502) Eps_18)))
(assert (forall ((x_35305 R_271) (x_35304 R_271) (x_36503 R_271))
	(plus_84 (Plus_83 (Star_9 x_36503) Eps_18) (Star_9 x_36503) Eps_18)))
(assert (forall ((x_35305 R_271) (x_36481 R_271) (x_36482 R_271) (x_35304 R_271) (x_36504 A_38))
	(plus_84 (Plus_83 (Atom_9 x_36504) (Plus_83 x_36481 x_36482)) (Atom_9 x_36504) (Plus_83 x_36481 x_36482))))
(assert (forall ((x_35305 R_271) (x_36481 R_271) (x_36482 R_271) (x_35304 R_271))
	(plus_84 (Plus_83 Eps_18 (Plus_83 x_36481 x_36482)) Eps_18 (Plus_83 x_36481 x_36482))))
(assert (forall ((x_35305 R_271) (x_36481 R_271) (x_36482 R_271) (x_35304 R_271) (x_36505 R_271) (x_36506 R_271))
	(plus_84 (Plus_83 (Plus_83 x_36505 x_36506) (Plus_83 x_36481 x_36482)) (Plus_83 x_36505 x_36506) (Plus_83 x_36481 x_36482))))
(assert (forall ((x_35305 R_271) (x_36481 R_271) (x_36482 R_271) (x_35304 R_271) (x_36507 R_271) (x_36508 R_271))
	(plus_84 (Plus_83 (Seq_18 x_36507 x_36508) (Plus_83 x_36481 x_36482)) (Seq_18 x_36507 x_36508) (Plus_83 x_36481 x_36482))))
(assert (forall ((x_35305 R_271) (x_36481 R_271) (x_36482 R_271) (x_35304 R_271) (x_36509 R_271))
	(plus_84 (Plus_83 (Star_9 x_36509) (Plus_83 x_36481 x_36482)) (Star_9 x_36509) (Plus_83 x_36481 x_36482))))
(assert (forall ((x_35305 R_271) (x_36483 R_271) (x_36484 R_271) (x_35304 R_271) (x_36510 A_38))
	(plus_84 (Plus_83 (Atom_9 x_36510) (Seq_18 x_36483 x_36484)) (Atom_9 x_36510) (Seq_18 x_36483 x_36484))))
(assert (forall ((x_35305 R_271) (x_36483 R_271) (x_36484 R_271) (x_35304 R_271))
	(plus_84 (Plus_83 Eps_18 (Seq_18 x_36483 x_36484)) Eps_18 (Seq_18 x_36483 x_36484))))
(assert (forall ((x_35305 R_271) (x_36483 R_271) (x_36484 R_271) (x_35304 R_271) (x_36511 R_271) (x_36512 R_271))
	(plus_84 (Plus_83 (Plus_83 x_36511 x_36512) (Seq_18 x_36483 x_36484)) (Plus_83 x_36511 x_36512) (Seq_18 x_36483 x_36484))))
(assert (forall ((x_35305 R_271) (x_36483 R_271) (x_36484 R_271) (x_35304 R_271) (x_36513 R_271) (x_36514 R_271))
	(plus_84 (Plus_83 (Seq_18 x_36513 x_36514) (Seq_18 x_36483 x_36484)) (Seq_18 x_36513 x_36514) (Seq_18 x_36483 x_36484))))
(assert (forall ((x_35305 R_271) (x_36483 R_271) (x_36484 R_271) (x_35304 R_271) (x_36515 R_271))
	(plus_84 (Plus_83 (Star_9 x_36515) (Seq_18 x_36483 x_36484)) (Star_9 x_36515) (Seq_18 x_36483 x_36484))))
(assert (forall ((x_35305 R_271) (x_36485 R_271) (x_35304 R_271) (x_36516 A_38))
	(plus_84 (Plus_83 (Atom_9 x_36516) (Star_9 x_36485)) (Atom_9 x_36516) (Star_9 x_36485))))
(assert (forall ((x_35305 R_271) (x_36485 R_271) (x_35304 R_271))
	(plus_84 (Plus_83 Eps_18 (Star_9 x_36485)) Eps_18 (Star_9 x_36485))))
(assert (forall ((x_35305 R_271) (x_36485 R_271) (x_35304 R_271) (x_36517 R_271) (x_36518 R_271))
	(plus_84 (Plus_83 (Plus_83 x_36517 x_36518) (Star_9 x_36485)) (Plus_83 x_36517 x_36518) (Star_9 x_36485))))
(assert (forall ((x_35305 R_271) (x_36485 R_271) (x_35304 R_271) (x_36519 R_271) (x_36520 R_271))
	(plus_84 (Plus_83 (Seq_18 x_36519 x_36520) (Star_9 x_36485)) (Seq_18 x_36519 x_36520) (Star_9 x_36485))))
(assert (forall ((x_35305 R_271) (x_36485 R_271) (x_35304 R_271) (x_36521 R_271))
	(plus_84 (Plus_83 (Star_9 x_36521) (Star_9 x_36485)) (Star_9 x_36521) (Star_9 x_36485))))
(declare-fun eqA_9 (Bool_224 A_38 A_38) Bool)
(assert (eqA_9 true_224 Y_1436 Y_1436))
(assert (eqA_9 false_224 Y_1436 X_35297))
(assert (eqA_9 false_224 X_35297 Y_1436))
(assert (eqA_9 true_224 X_35297 X_35297))
(declare-fun eqList_0 (Bool_224 list_153 list_153) Bool)
(assert (forall ((x_37339 Bool_224) (x_37340 Bool_224) (x_37341 Bool_224) (y_1441 A_38) (ys_137 list_153) (x_35308 A_38) (xs_427 list_153))
	(=> (and (eqA_9 x_37340 x_35308 y_1441) (eqList_0 x_37341 xs_427 ys_137) (and_224 x_37339 x_37340 x_37341)) (eqList_0 x_37339 (cons_153 x_35308 xs_427) (cons_153 y_1441 ys_137)))))
(assert (forall ((x_35308 A_38) (xs_427 list_153))
	(eqList_0 false_224 (cons_153 x_35308 xs_427) nil_173)))
(assert (forall ((z_1328 A_38) (x_35309 list_153))
	(eqList_0 false_224 nil_173 (cons_153 z_1328 x_35309))))
(assert (eqList_0 true_224 nil_173 nil_173))
(declare-fun eps_19 (Bool_224 R_271) Bool)
(assert (forall ((y_1442 R_271))
	(eps_19 true_224 (Star_9 y_1442))))
(assert (forall ((x_37346 Bool_224) (x_37347 Bool_224) (x_37348 Bool_224) (r_272 R_271) (q_81 R_271))
	(=> (and (eps_19 x_37347 r_272) (eps_19 x_37348 q_81) (and_224 x_37346 x_37347 x_37348)) (eps_19 x_37346 (Seq_18 r_272 q_81)))))
(assert (forall ((x_37349 Bool_224) (x_37350 Bool_224) (x_37351 Bool_224) (p_246 R_271) (q_82 R_271))
	(=> (and (eps_19 x_37350 p_246) (eps_19 x_37351 q_82) (or_228 x_37349 x_37350 x_37351)) (eps_19 x_37349 (Plus_83 p_246 q_82)))))
(assert (eps_19 true_224 Eps_18))
(assert (forall ((x_35311 R_271) (x_36522 A_38))
	(eps_19 false_224 (Atom_9 x_36522))))
(assert (forall ((x_35311 R_271))
	(eps_19 false_224 Nil_172)))
(declare-fun epsR_9 (R_271 R_271) Bool)
(assert (forall ((x_35312 R_271))
	(=> (eps_19 true_224 x_35312) (epsR_9 Eps_18 x_35312))))
(assert (forall ((x_35312 R_271))
	(=> (eps_19 false_224 x_35312) (epsR_9 Nil_172 x_35312))))
(declare-fun step_9 (R_271 R_271 A_38) Bool)
(assert (forall ((x_37359 R_271) (x_37360 R_271) (p_247 R_271) (y_1443 A_38))
	(=> (and (step_9 x_37360 p_247 y_1443) (seq_19 x_37359 x_37360 (Star_9 p_247))) (step_9 x_37359 (Star_9 p_247) y_1443))))
(assert (forall ((x_37362 R_271) (x_37363 R_271) (x_37364 R_271) (x_37365 R_271) (x_37366 R_271) (x_37367 R_271) (r_273 R_271) (q_83 R_271) (y_1443 A_38))
	(=> (and (step_9 x_37363 r_273 y_1443) (seq_19 x_37364 x_37363 q_83) (epsR_9 x_37365 r_273) (step_9 x_37366 q_83 y_1443) (seq_19 x_37367 x_37365 x_37366) (plus_84 x_37362 x_37364 x_37367)) (step_9 x_37362 (Seq_18 r_273 q_83) y_1443))))
(assert (forall ((x_37369 R_271) (x_37370 R_271) (x_37371 R_271) (p_248 R_271) (q_84 R_271) (y_1443 A_38))
	(=> (and (step_9 x_37370 p_248 y_1443) (step_9 x_37371 q_84 y_1443) (plus_84 x_37369 x_37370 x_37371)) (step_9 x_37369 (Plus_83 p_248 q_84) y_1443))))
(assert (forall ((a_39 A_38) (y_1443 A_38))
	(=> (eqA_9 true_224 a_39 y_1443) (step_9 Eps_18 (Atom_9 a_39) y_1443))))
(assert (forall ((a_39 A_38) (y_1443 A_38))
	(=> (eqA_9 false_224 a_39 y_1443) (step_9 Nil_172 (Atom_9 a_39) y_1443))))
(assert (forall ((x_35314 R_271) (y_1443 A_38))
	(step_9 Nil_172 Eps_18 y_1443)))
(assert (forall ((x_35314 R_271) (y_1443 A_38))
	(step_9 Nil_172 Nil_172 y_1443)))
(declare-fun recognise_9 (Bool_224 R_271 list_153) Bool)
(assert (forall ((x_37379 Bool_224) (x_37380 R_271) (z_1329 A_38) (xs_428 list_153) (x_35315 R_271))
	(=> (and (step_9 x_37380 x_35315 z_1329) (recognise_9 x_37379 x_37380 xs_428)) (recognise_9 x_37379 x_35315 (cons_153 z_1329 xs_428)))))
(assert (forall ((x_37382 Bool_224) (x_35315 R_271))
	(=> (eps_19 x_37382 x_35315) (recognise_9 x_37382 x_35315 nil_173))))
(assert (forall ((x_37384 Bool_224) (x_37385 Bool_224) (a_40 A_38) (s_320 list_153))
	(=> (and true (diseqBool_101 x_37384 x_37385) (recognise_9 x_37384 (Atom_9 a_40) s_320) (eqList_0 x_37385 s_320 (cons_153 a_40 nil_173))) false)))
(check-sat)
